142531
10,40,66,103,37,104,100,2,93,77,95,59,90,78,42,23,57,0,86,43,65,58,9,26,27,75,88,92,11,91,22,79,56,82,73,101,13,46,60,102,3,14,74,34,50,99,81,71,44,24,85,80,41,18,98,67,49,25,33,8,105,30,64,51,4,28,29,54,7,96,97,12,87,68,55,19,15,89,63,39,5,45,76,16,20,61,21,1,32,83,52,62,31,6,17,48,36,69,53,94,70,35,38,72,47,84
